LatticeConstant 1.0 Ang
%block LatticeVectors
 2.13000000 -1.22975607 0.00000000
 2.13000000 1.22975607 0.00000000
 0.00000000 0.00000000 14.20000000
%endblock LatticeVectors
NumberOfAtoms 2
AtomicCoordinatesFormat Ang
%block AtomicCoordinatesAndAtomicSpecies
 0.00000000 0.00000000 0.00000000 1 # 1: B
 1.42000000 0.00000000 0.00000000 2 # 2: N
%endblock AtomicCoordinatesAndAtomicSpecies
NumberOfSpecies 2
%block ChemicalSpeciesLabel
 1 5 B
 2 7 N
%endblock ChemicalSpeciesLabel
%block kgrid.MonkhorstPack
   9 0 0  0
   0 9 0  0
   0 0 1  0
%endblock kgrid.MonkhorstPack
TS.HS.Save true
SaveRho true
